Grasp exp. instance_n_15_m_5_id_2.lp tipoLifted 0 szPool 5 nIteration 20 alpha 0.2 
Academic license - for non-commercial use only
Read LP format model from file ../input/instancesGenerated/instance_n_15_m_5_id_2.lp
Reading time = 0.00 seconds
: 5 rows, 15 columns, 75 nonzeros
Optimize a model with 5 rows, 15 columns and 75 nonzeros
Variable types: 0 continuous, 15 integer (15 binary)
Coefficient statistics:
  Matrix range     [1e+00, 1e+01]
  Objective range  [1e+00, 1e+01]
  Bounds range     [1e+00, 1e+00]
  RHS range        [4e+01, 5e+01]
Found heuristic solution: objective 36.0000000

Explored 0 nodes (0 simplex iterations) in 0.00 seconds
Thread count was 1 (of 8 available processors)

Solution count 1: 36 
No other solutions better than 0

Solution limit reached
Best objective 3.600000000000e+01, best bound -, gap -
C_1:	 6.00 x_1  = 1.000000 + 6.00 x_2  = 0.000000 + 1.00 x_3  = 0.000000 + 4.00 x_4  = 1.000000 + 5.00 x_5  = 0.101545 + 9.00 x_6  = 0.253863 + 9.00 x_7  = 0.112583 + 2.00 x_8  = 1.000000 + 4.00 x_9  = 0.000000 + 1.00 x_10  = 1.000000 + 6.00 x_11  = 1.000000 + 2.00 x_12  = 0.000000 + 7.00 x_13  = 1.000000 + 8.00 x_14  = 0.024283 + 9.00 x_15  = 1.000000 <= 39.00
C_2:	 4.00 x_1  = 1.000000 + 9.00 x_2  = 0.000000 + 2.00 x_3  = 0.000000 + 7.00 x_4  = 1.000000 + 8.00 x_5  = 0.101545 + 7.00 x_6  = 0.253863 + 3.00 x_7  = 0.112583 + 7.00 x_8  = 1.000000 + 7.00 x_9  = 0.000000 + 10.00 x_10  = 1.000000 + 6.00 x_11  = 1.000000 + 5.00 x_12  = 0.000000 + 2.00 x_13  = 1.000000 + 3.00 x_14  = 0.024283 + 1.00 x_15  = 1.000000 <= 40.00
C_3:	 8.00 x_1  = 1.000000 + 9.00 x_2  = 0.000000 + 8.00 x_3  = 0.000000 + 1.00 x_4  = 1.000000 + 4.00 x_5  = 0.101545 + 2.00 x_6  = 0.253863 + 9.00 x_7  = 0.112583 + 5.00 x_8  = 1.000000 + 5.00 x_9  = 0.000000 + 4.00 x_10  = 1.000000 + 5.00 x_11  = 1.000000 + 3.00 x_12  = 0.000000 + 5.00 x_13  = 1.000000 + 3.00 x_14  = 0.024283 + 10.00 x_15  = 1.000000 <= 40.00
C_4:	 6.00 x_1  = 1.000000 + 7.00 x_2  = 0.000000 + 8.00 x_3  = 0.000000 + 7.00 x_4  = 1.000000 + 3.00 x_5  = 0.101545 + 7.00 x_6  = 0.253863 + 6.00 x_7  = 0.112583 + 7.00 x_8  = 1.000000 + 5.00 x_9  = 0.000000 + 2.00 x_10  = 1.000000 + 9.00 x_11  = 1.000000 + 1.00 x_12  = 0.000000 + 7.00 x_13  = 1.000000 + 10.00 x_14  = 0.024283 + 3.00 x_15  = 1.000000 <= 44.00
C_5:	 9.00 x_1  = 1.000000 + 9.00 x_2  = 0.000000 + 3.00 x_3  = 0.000000 + 7.00 x_4  = 1.000000 + 9.00 x_5  = 0.101545 + 9.00 x_6  = 0.253863 + 10.00 x_7  = 0.112583 + 10.00 x_8  = 1.000000 + 3.00 x_9  = 0.000000 + 7.00 x_10  = 1.000000 + 3.00 x_11  = 1.000000 + 9.00 x_12  = 0.000000 + 9.00 x_13  = 1.000000 + 10.00 x_14  = 0.024283 + 1.00 x_15  = 1.000000 <= 54.00
Solution initial: 64.344371 
Number Constraints Used in Cover:5
GRASP Method!
Number cuts repeat: 0
value: 64.344371
Number Constraints Used in Cover:7
GRASP Method!
Number cuts repeat: 0
value: 63.920306
Number Constraints Used in Cover:14
GRASP Method!
Number cuts repeat: 0
value: 63.920306
Number Constraints Used in Cover:23
GRASP Method!
Number cuts repeat: 0
value: 63.920306
Number Constraints Used in Cover:33
GRASP Method!
Number cuts repeat: 0
value: 63.920306
Number Constraints Used in Cover:45
GRASP Method!
Number cuts repeat: 0
value: 63.920306
Number Constraints Used in Cover:57
GRASP Method!
Number cuts repeat: 0
value: 63.920306
Number Constraints Used in Cover:67
GRASP Method!
Number cuts repeat: 0
value: 63.920306
Number Constraints Used in Cover:81
GRASP Method!
Number cuts repeat: 0
value: 63.920306
Number Constraints Used in Cover:92
GRASP Method!
Number cuts repeat: 0
value: 63.920306
Number Constraints Used in Cover:101
GRASP Method!
Number cuts repeat: 0
value: 63.920306
Number Constraints Used in Cover:111
GRASP Method!
Number cuts repeat: 0
value: 63.920306
Number Constraints Used in Cover:124
GRASP Method!
Number cuts repeat: 0
value: 63.920306
Number Constraints Used in Cover:134
GRASP Method!
Number cuts repeat: 0
value: 63.920306
Number Constraints Used in Cover:145
GRASP Method!
Number cuts repeat: 0
value: 63.920306
Number Constraints Used in Cover:155
GRASP Method!
Number cuts repeat: 0
value: 63.920306
Number Constraints Used in Cover:170
GRASP Method!
Number cuts repeat: 0
value: 63.920306
Number Constraints Used in Cover:179
GRASP Method!
Number cuts repeat: 0
value: 63.920306
Number Constraints Used in Cover:190
GRASP Method!
Number cuts repeat: 0
value: 63.920306
Number Constraints Used in Cover:197
GRASP Method!
Number cuts repeat: 0
value: 63.920306
Number Constraints Used in Cover:209
GRASP Method!
Number cuts repeat: 0
value: 63.920306
Number Constraints Used in Cover:214
GRASP Method!
Number cuts repeat: 0
value: 63.920306
Number Constraints Used in Cover:225
GRASP Method!
Number cuts repeat: 0
value: 63.920306
Number Constraints Used in Cover:236
GRASP Method!
Number cuts repeat: 0
value: 63.920306
Number Constraints Used in Cover:244
GRASP Method!
Number cuts repeat: 0
value: 63.774890
Number Constraints Used in Cover:251
GRASP Method!
Number cuts repeat: 0
value: 63.774890
Number Constraints Used in Cover:268
GRASP Method!
Number cuts repeat: 0
value: 63.774890
Number Constraints Used in Cover:280
GRASP Method!
Number cuts repeat: 0
value: 63.774890
Number Constraints Used in Cover:290
GRASP Method!
Number cuts repeat: 0
value: 63.774890
Number Constraints Used in Cover:303
GRASP Method!
Number cuts repeat: 0
value: 63.774890
Number Constraints Used in Cover:313
GRASP Method!
Number cuts repeat: 0
value: 63.774890
Number Constraints Used in Cover:316
GRASP Method!
Number cuts repeat: 0
value: 63.774890
Number Constraints Used in Cover:325
GRASP Method!
Number cuts repeat: 0
value: 63.774890
Number Constraints Used in Cover:338
GRASP Method!
Number cuts repeat: 0
value: 63.774890
Number Constraints Used in Cover:357
GRASP Method!
Number cuts repeat: 0
value: 63.774890
Number Constraints Used in Cover:363
GRASP Method!
Number cuts repeat: 0
value: 63.774890
Number Constraints Used in Cover:371
GRASP Method!
Number cuts repeat: 0
value: 63.774890
Number Constraints Used in Cover:380
GRASP Method!
Number cuts repeat: 0
value: 63.774890
Number Constraints Used in Cover:400
GRASP Method!
Number cuts repeat: 0
value: 63.774890
Number Constraints Used in Cover:411
GRASP Method!
Number cuts repeat: 0
value: 63.774890
Number Constraints Used in Cover:428
GRASP Method!
Number cuts repeat: 0
value: 63.774890
Number Constraints Used in Cover:440
GRASP Method!
Number cuts repeat: 0
value: 63.774890
Number Constraints Used in Cover:447
GRASP Method!
Number cuts repeat: 0
value: 63.774890
Number Constraints Used in Cover:458
GRASP Method!
Number cuts repeat: 0
value: 63.774890
Number Constraints Used in Cover:460
GRASP Method!
Number cuts repeat: 0
value: 63.774890
Number Constraints Used in Cover:471
GRASP Method!
Number cuts repeat: 0
value: 63.774890
Number Constraints Used in Cover:480
GRASP Method!
Number cuts repeat: 0
value: 63.774890
Number Constraints Used in Cover:492
GRASP Method!
Number cuts repeat: 0
value: 63.774890
Number Constraints Used in Cover:497
GRASP Method!
Number cuts repeat: 0
value: 63.774890
Number Constraints Used in Cover:505
GRASP Method!
Number cuts repeat: 0
value: 63.774890
Number Constraints Used in Cover:515
GRASP Method!
Number cuts repeat: 0
value: 63.774890
Number Constraints Used in Cover:531
GRASP Method!
Number cuts repeat: 0
value: 63.774890
Number Constraints Used in Cover:542
GRASP Method!
Number cuts repeat: 0
value: 63.774890
Number Constraints Used in Cover:559
GRASP Method!
Number cuts repeat: 0
value: 63.774890
Number Constraints Used in Cover:573
GRASP Method!
Number cuts repeat: 0
value: 63.774890
Number Constraints Used in Cover:586
GRASP Method!
Number cuts repeat: 0
value: 63.774890
Number Constraints Used in Cover:598
GRASP Method!
Number cuts repeat: 0
value: 63.774890
Number Constraints Used in Cover:605
GRASP Method!
Number cuts repeat: 0
value: 63.774890
Number Constraints Used in Cover:621
GRASP Method!
Number cuts repeat: 0
value: 63.774890
Number Constraints Used in Cover:634
GRASP Method!
Number cuts repeat: 0
value: 63.774890
Number Constraints Used in Cover:648
GRASP Method!
Number cuts repeat: 0
value: 63.774890
Number Constraints Used in Cover:653
GRASP Method!
Number cuts repeat: 0
value: 63.774890
Number Constraints Used in Cover:663
GRASP Method!
Number cuts repeat: 0
value: 63.774890
Number Constraints Used in Cover:674
GRASP Method!
Number cuts repeat: 0
value: 63.774890
Number Constraints Used in Cover:685
GRASP Method!
Number cuts repeat: 0
value: 63.774890
Number Constraints Used in Cover:693
GRASP Method!
Number cuts repeat: 0
value: 63.774890
Number Constraints Used in Cover:703
GRASP Method!
Number cuts repeat: 0
value: 63.774890
Number Constraints Used in Cover:713
GRASP Method!
Number cuts repeat: 0
value: 63.774890
Number Constraints Used in Cover:717
GRASP Method!
Number cuts repeat: 0
value: 63.774890
Number Constraints Used in Cover:726
GRASP Method!
Number cuts repeat: 0
value: 63.774890
Number Constraints Used in Cover:738
GRASP Method!
Number cuts repeat: 0
value: 63.774890
Number Constraints Used in Cover:747
GRASP Method!
Number cuts repeat: 0
value: 63.774890
Number Constraints Used in Cover:755
GRASP Method!
Number cuts repeat: 0
value: 63.774890
Number Constraints Used in Cover:763
GRASP Method!
Number cuts repeat: 0
value: 63.774890
Number Constraints Used in Cover:774
GRASP Method!
Number cuts repeat: 0
value: 63.774890
Number Constraints Used in Cover:781
GRASP Method!
Number cuts repeat: 0
value: 63.774890
Number Constraints Used in Cover:793
GRASP Method!
Number cuts repeat: 0
value: 63.774890
Number Constraints Used in Cover:802
GRASP Method!
Number cuts repeat: 0
value: 63.774890
Number Constraints Used in Cover:811
GRASP Method!
Number cuts repeat: 0
value: 63.774890
Number Cuts Final: 813
